
ACE v2.1 

  instance
    name:PyCSP

  Loading variables...

  Loading constraints...

  domains
    types:1  values:972  sizes:[6:162]
  variables
    count:162  arrays:1  degrees:[109:4,110:106,111:52]
  constraints
    count:4351  specific:58  groups:2  arities:[4:4293,6:53,54:3,108:2]
    distribution:[Cardinality:3,ConstraintIntension:4293,LexicographicLE:55]
    intStructures:(1,shared:4292)
    wck:2.85  cpu:2.125  mem:49M390

  Building solver... 

  solver
    guaranteedAC:true
    wck:2.91  cpu:2.14  mem:56M207

  preprocessing
    revisions:(17172,useless=17172)  values:972  unsat:false
    wck:0.094  cpu:2.187  mem:56M207

    run0  dpts:45..49  effs:207  fails:10  wrgs:15  wck:0.00  ngds:4
    run1  dpts:2..8  effs:1091  fails:21  wrgs:38  wck:0.34  ngds:7
    run2  dpts:0..5  effs:1709  fails:33  wrgs:53  wck:0.57  ngds:15
    run3  dpts:0..7  effs:2766  fails:46  wrgs:74  wck:0.67  ngds:17
    run4  dpts:0..8  effs:3706  fails:60  wrgs:93  wck:0.87  ngds:28
    run5  dpts:0..7  effs:4928  fails:76  wrgs:120  wck:0.95  ngds:35
    run6  dpts:0..8  effs:5829  fails:93  wrgs:142  wck:1.10  ngds:41
    run7  dpts:0..6  effs:7336  fails:112  wrgs:182  wck:1.20  ngds:43
    run8  dpts:0..10  effs:8417  fails:133  wrgs:214  wck:1.37  ngds:46
    run9  dpts:0..7  effs:9919  fails:156  wrgs:256  wck:1.48  ngds:53
    run10  dpts:0..10  effs:10660  fails:174  wrgs:285  wck:1.74  ngds:53

  global
    effs:10660  revisions:(3297760,useless=3297039)  ngds:53
    stop:FULL_EXPLORATION  wrgs:285
    wck:4.85  cpu:3.156  mem:57M494

s UNSATISFIABLE

d WRONG DECISIONS 285
d FOUND SOLUTIONS 0
d COMPLETE EXPLORATION

c real time : 3.156
